NAME : OMNETRUN
COMMENT : 524.61
TYPE : CVRP
DIMENSION : 21
EDGE_WEIGHT_TYPE : EUC_2D
CAPACITY : 21
NODE_COORD_SECTION
1 0.107093 -0.77924
2 220.58 -1791.6
3 73.4571 -2303.56
4 247.483 -2902.51
5 128.767 -4052.92
6 187.325 -4815.61
7 26.2281 -5613.15
8 439.663 -163.212
9 265.764 -538.205
10 404.713 -1129.66
11 473.85 -2414.77
12 436.68 -3478.65
13 409.798 -5783.3
14 589.414 -802.102
15 737.398 -1808.53
16 643.945 -3036.04
17 546.329 -5105.85
18 917.115 -354.713
19 897.059 -1077.61
20 953.761 -1430.62
21 919.162 -2277.09
DEMAND_SECTION
1 0
2 1
3 1
4 1
5 1
6 1
7 1
8 1
9 1
10 1
11 1
12 1
13 1
14 1
15 1
16 1
17 1
18 1
19 1
20 1
21 1
DEPOT_SECTION
1
-1
EOF
